1 1051
2 964
3 912
5 877
9 860
33 849
99 837
154 822
169 816



1 1032
2 993
3 975
4 945
5 859
84 831
106 826



1 969
2 958
3 899
19 873
36 850
122 831
147 827
517 822
568 814



1 959
2 941
3 935
6 889
16 885
19 883
20 850
23 835
756 833



1 961
2 949
3 940
5 935
6 863
69 854
199 828
481 824



